# Example from https://sboyles.github.io/teaching/ce367r/04-mincostflow.pdf, slide 25
# version without lower bound (same result)

set N1 := 0 1 2;
set N2 := 3 4 5;


param:
    cost :=
     0 3 1
     0 4 0
     0 5 4
     1 3 6
     1 4 8
     1 5 0
     2 3 0
     2 4 6
     2 5 1
        ;

end;
